29 29
24
3 3 12 10
3 4 3 22
5 3 11 4
6 3 0 26
7 3 0 0
3 8 0 18
9 3 16 4
10 3 15 10
3 11 26 18
3 15 4 3
18 3 7 7
20 3 6 22
3 4 3 18
4 4 0 3
5 4 6 18
4 6 0 7
4 7 7 0
4 9 25 4
15 4 11 18
18 4 11 0
20 4 6 25
4 5 0 13
5 8 7 10
17 5 12 13
